
Gurobi 6.5.2 (win64) logging started 07/23/16 02:39:37


Gurobi 6.5.2 (win64) logging started 07/23/16 02:39:37

Optimize a model with 13521 rows, 784 columns and 28470 nonzeros
Coefficient statistics:
  Matrix range    [1e+00, 5e+01]
  Objective range [7e+00, 5e+01]
  Bounds range    [1e+00, 1e+00]
  RHS range       [1e+00, 7e+02]
Presolve removed 13366 rows and 211 columns
Presolve time: 0.02s
Presolved: 155 rows, 573 columns, 2452 nonzeros
Variable types: 0 continuous, 573 integer (573 binary)

Root relaxation: objective 6.660000e+02, 205 iterations, 0.00 seconds

    Nodes    |    Current Node    |     Objective Bounds      |     Work
 Expl Unexpl |  Obj  Depth IntInf | Incumbent    BestBd   Gap | It/Node Time

*    0     0               0     666.0000000  666.00000  0.00%     -    0s

Explored 0 nodes (205 simplex iterations) in 0.04 seconds
Thread count was 8 (of 8 available processors)

Optimal solution found (tolerance 1.00e-04)
Best objective 6.660000000000e+02, best bound 6.660000000000e+02, gap 0.0%

Wrote requested result file 'H2\instance11\\Results11SG_Sol2.lp'


Gurobi 6.5.2 (win64) logging started 07/23/16 02:43:32


Gurobi 6.5.2 (win64) logging started 07/23/16 02:43:32

Optimize a model with 13521 rows, 784 columns and 28470 nonzeros
Coefficient statistics:
  Matrix range    [1e+00, 5e+01]
  Objective range [7e+00, 5e+01]
  Bounds range    [1e+00, 1e+00]
  RHS range       [1e+00, 7e+02]
Presolve removed 13366 rows and 211 columns
Presolve time: 0.02s
Presolved: 155 rows, 573 columns, 2452 nonzeros
Variable types: 0 continuous, 573 integer (573 binary)

Root relaxation: objective 6.660000e+02, 205 iterations, 0.00 seconds

    Nodes    |    Current Node    |     Objective Bounds      |     Work
 Expl Unexpl |  Obj  Depth IntInf | Incumbent    BestBd   Gap | It/Node Time

*    0     0               0     666.0000000  666.00000  0.00%     -    0s

Explored 0 nodes (205 simplex iterations) in 0.04 seconds
Thread count was 8 (of 8 available processors)

Optimal solution found (tolerance 1.00e-04)
Best objective 6.660000000000e+02, best bound 6.660000000000e+02, gap 0.0%

Wrote requested result file 'H2\instance11\\Results11SG_Sol2.lp'

